; benchmark generated from python API
(set-info :status unknown)
(declare-datatypes ((IntState 0)) (((Mk1 (val1 Int)) (Mk2 (val2 Int)))))
 (declare-fun c_main_~i~6 () Int)
(declare-fun c_main_~j~6 () Int)
(declare-fun c_main_~k~6 () Int)
(assert
 (let (($x10 (<= 1 c_main_~i~6)))
 (let (($x115 (<= 0 c_main_~i~6)))
 (let ((?x78 (* 2 c_main_~i~6)))
 (let (($x74 (<= ?x78 c_main_~j~6)))
 (let (($x23 (<= 2 c_main_~i~6)))
 (let (($x51 (<= (+ ?x78 1) c_main_~j~6)))
 (let (($x108 (exists ((v_nnf_58_st IntState) (val!15 Int) )(let (($x44 (and (<= c_main_~k~6 (+ (val2 v_nnf_58_st) 3)) (<= 3 (val2 v_nnf_58_st)) (<= (+ (* 2 (val2 v_nnf_58_st)) 2) c_main_~j~6))))
 (let (($x52 (not (= v_nnf_58_st (Mk1 val!15)))))
 (and $x52 $x44))))
 ))
 (let (($x99 (<= 3 c_main_~i~6)))
 (let (($x116 (exists ((v_nnf_54 Int) )(let (($x91 (<= (+ (* 2 v_nnf_54) 2) c_main_~j~6)))
 (let (($x88 (<= 3 v_nnf_54)))
 (and (<= c_main_~k~6 (+ v_nnf_54 1)) $x88 $x91))))
 ))
 (and (and $x99 $x51 $x23 $x74 $x116 $x115 $x10) (not (and $x99 $x108 $x51 $x23 $x74 $x115 $x10)))))))))))))
(check-sat)
